\ LP format - for model browsing. Use MPS format to capture full model detail.
Minimize
  Yk[1] + Yk[2] + Yk[3]
Subject To
 R0: Xj[1] + Xj[2] + Xj[3] + Xj[4] + Xj[5] + Xj[6] + Xj[7] + Xj[8] + Xj[9]
   + Xj[10] + Xj[11] + Xj[12] + Xj[13] + Xj[14] >= 1
 R1: Xj[1] + Xj[2] + Xj[3] + Xj[4] + Xj[5] + Xj[6] + Xj[7] + Xj[8] + Xj[9]
   + Xj[10] + Xj[11] + Xj[12] + Xj[13] + Xj[14] >= 1
 R2: Xj[1] + Xj[2] + Xj[3] + Xj[4] + Xj[5] + Xj[6] + Xj[7] + Xj[8] + Xj[9]
   + Xj[10] + Xj[11] + Xj[12] + Xj[13] + Xj[14] >= 1
 R3: Xj[1] + Xj[2] + Xj[3] + Xj[4] + Xj[5] + Xj[6] + Xj[7] + Xj[8] + Xj[9]
   + Xj[10] + Xj[11] + Xj[12] + Xj[13] + Xj[14] >= 1
 R4: Xj[1] + Xj[2] + Xj[3] + Xj[4] + Xj[5] + Xj[6] + Xj[7] + Xj[8] + Xj[9]
   + Xj[10] + Xj[11] + Xj[12] + Xj[13] + Xj[14] >= 1
 R5: Xj[1] + Xj[2] + Xj[3] + Xj[4] + Xj[5] + Xj[6] + Xj[7] + Xj[8] + Xj[9]
   + Xj[10] + Xj[11] + Xj[12] + Xj[13] + Xj[14] >= 1
 R6: Xj[1] + Xj[2] + Xj[3] + Xj[4] + Xj[5] + Xj[6] + Xj[7] + Xj[8] + Xj[9]
   + Xj[10] + Xj[11] + Xj[12] + Xj[13] + Xj[14] >= 1
 R7: Xj[1] + Xj[2] + Xj[3] + Xj[4] + Xj[5] + Xj[6] + Xj[7] + Xj[8] + Xj[9]
   + Xj[10] + Xj[11] + Xj[12] + Xj[13] + Xj[14] >= 1
 R8: Xj[1] + Xj[2] + Xj[3] + Xj[4] + Xj[5] + Xj[6] + Xj[7] + Xj[8] + Xj[9]
   + Xj[10] + Xj[11] + Xj[12] + Xj[13] + Xj[14] >= 1
 R9: Xj[1] + Xj[2] + Xj[3] + Xj[4] + Xj[5] + Xj[6] + Xj[7] + Xj[8] + Xj[9]
   + Xj[10] + Xj[11] + Xj[12] + Xj[13] + Xj[14] >= 1
 R10: 22.80044278211997 Qkj[1,1] + 22.80044278211997 Qkj[1,2]
   + 23.0893440392642 Qkj[1,3] + 23.0893440392642 Qkj[1,4]
   + 10.21979111626157 Qkj[1,5] + 10.21979111626157 Qkj[1,6]
   + 5.95574090381777 Qkj[1,7] + 5.95574090381777 Qkj[1,8]
   + 3.272201411205002 Qkj[1,9] + 3.272201411205002 Qkj[1,10]
   + 7.435700553608074 Qkj[1,11] + 7.435700553608074 Qkj[1,12]
   + 16.7172518443947 Qkj[1,13] + 16.7172518443947 Qkj[1,14] - Yk[1] = 0
 R11: 13.42281585787414 Qkj[2,1] + 13.42281585787414 Qkj[2,2]
   + 13.32368677596278 Qkj[2,3] + 13.32368677596278 Qkj[2,4]
   + 9.118174436616966 Qkj[2,5] + 9.118174436616966 Qkj[2,6]
   + 12.22528778147976 Qkj[2,7] + 12.22528778147976 Qkj[2,8]
   + 8.87888569647358 Qkj[2,9] + 8.87888569647358 Qkj[2,10]
   + 9.175002989784705 Qkj[2,11] + 9.175002989784705 Qkj[2,12]
   + 13.4268370663959 Qkj[2,13] + 13.4268370663959 Qkj[2,14] - Yk[2] = 0
 R12: 25.85520090635872 Qkj[3,1] + 25.85520090635872 Qkj[3,2]
   + 21.27272776542677 Qkj[3,3] + 21.27272776542677 Qkj[3,4]
   + 6.980010170868758 Qkj[3,5] + 6.980010170868758 Qkj[3,6]
   + 11.84853806885612 Qkj[3,7] + 11.84853806885612 Qkj[3,8]
   + 18.83748846355261 Qkj[3,9] + 18.83748846355261 Qkj[3,10]
   + 22.03146557560666 Qkj[3,11] + 22.03146557560666 Qkj[3,12]
   + 28.89203388008221 Qkj[3,13] + 28.89203388008221 Qkj[3,14] - Yk[3] = 0
 R13: 700 Xj[1] + 750 Xj[2] + 500 Xj[3] + 550 Xj[4] + 600 Xj[5] + 650 Xj[6]
   + 900 Xj[7] + 950 Xj[8] + 300 Xj[9] + 350 Xj[10] + 700 Xj[11]
   + 750 Xj[12] + 1100 Xj[13] + 1150 Xj[14] <= 1e+06
 R14: - Xj[1] + Qkj[1,1] <= 0
 R15: - Xj[2] + Qkj[1,2] <= 0
 R16: - Xj[3] + Qkj[1,3] <= 0
 R17: - Xj[4] + Qkj[1,4] <= 0
 R18: - Xj[5] + Qkj[1,5] <= 0
 R19: - Xj[6] + Qkj[1,6] <= 0
 R20: - Xj[7] + Qkj[1,7] <= 0
 R21: - Xj[8] + Qkj[1,8] <= 0
 R22: - Xj[9] + Qkj[1,9] <= 0
 R23: - Xj[10] + Qkj[1,10] <= 0
 R24: - Xj[11] + Qkj[1,11] <= 0
 R25: - Xj[12] + Qkj[1,12] <= 0
 R26: - Xj[13] + Qkj[1,13] <= 0
 R27: - Xj[14] + Qkj[1,14] <= 0
 R28: - Xj[1] + Qkj[2,1] <= 0
 R29: - Xj[2] + Qkj[2,2] <= 0
 R30: - Xj[3] + Qkj[2,3] <= 0
 R31: - Xj[4] + Qkj[2,4] <= 0
 R32: - Xj[5] + Qkj[2,5] <= 0
 R33: - Xj[6] + Qkj[2,6] <= 0
 R34: - Xj[7] + Qkj[2,7] <= 0
 R35: - Xj[8] + Qkj[2,8] <= 0
 R36: - Xj[9] + Qkj[2,9] <= 0
 R37: - Xj[10] + Qkj[2,10] <= 0
 R38: - Xj[11] + Qkj[2,11] <= 0
 R39: - Xj[12] + Qkj[2,12] <= 0
 R40: - Xj[13] + Qkj[2,13] <= 0
 R41: - Xj[14] + Qkj[2,14] <= 0
 R42: - Xj[1] + Qkj[3,1] <= 0
 R43: - Xj[2] + Qkj[3,2] <= 0
 R44: - Xj[3] + Qkj[3,3] <= 0
 R45: - Xj[4] + Qkj[3,4] <= 0
 R46: - Xj[5] + Qkj[3,5] <= 0
 R47: - Xj[6] + Qkj[3,6] <= 0
 R48: - Xj[7] + Qkj[3,7] <= 0
 R49: - Xj[8] + Qkj[3,8] <= 0
 R50: - Xj[9] + Qkj[3,9] <= 0
 R51: - Xj[10] + Qkj[3,10] <= 0
 R52: - Xj[11] + Qkj[3,11] <= 0
 R53: - Xj[12] + Qkj[3,12] <= 0
 R54: - Xj[13] + Qkj[3,13] <= 0
 R55: - Xj[14] + Qkj[3,14] <= 0
 R56: Qkj[1,1] + Qkj[1,2] + Qkj[1,3] + Qkj[1,4] + Qkj[1,5] + Qkj[1,6]
   + Qkj[1,7] + Qkj[1,8] + Qkj[1,9] + Qkj[1,10] + Qkj[1,11] + Qkj[1,12]
   + Qkj[1,13] + Qkj[1,14] = 1
 R57: Qkj[2,1] + Qkj[2,2] + Qkj[2,3] + Qkj[2,4] + Qkj[2,5] + Qkj[2,6]
   + Qkj[2,7] + Qkj[2,8] + Qkj[2,9] + Qkj[2,10] + Qkj[2,11] + Qkj[2,12]
   + Qkj[2,13] + Qkj[2,14] = 1
 R58: Qkj[3,1] + Qkj[3,2] + Qkj[3,3] + Qkj[3,4] + Qkj[3,5] + Qkj[3,6]
   + Qkj[3,7] + Qkj[3,8] + Qkj[3,9] + Qkj[3,10] + Qkj[3,11] + Qkj[3,12]
   + Qkj[3,13] + Qkj[3,14] = 1
 R59: Ukjf[1,1,1] + Ukjf[1,1,2] + Ukjf[1,1,3] + Ukjf[1,1,4] + Ukjf[1,1,5]
   + Ukjf[1,1,6] + Ukjf[1,1,7] + Ukjf[1,1,8] + Ukjf[1,1,9] + Ukjf[1,1,10]
   + Ukjf[1,3,1] + Ukjf[1,3,2] + Ukjf[1,3,3] + Ukjf[1,3,4] + Ukjf[1,3,5]
   + Ukjf[1,3,6] + Ukjf[1,3,7] + Ukjf[1,3,8] + Ukjf[1,3,9] + Ukjf[1,3,10]
   + Ukjf[1,5,1] + Ukjf[1,5,2] + Ukjf[1,5,3] + Ukjf[1,5,4] + Ukjf[1,5,5]
   + Ukjf[1,5,6] + Ukjf[1,5,7] + Ukjf[1,5,8] + Ukjf[1,5,9] + Ukjf[1,5,10]
   + Ukjf[1,7,1] + Ukjf[1,7,2] + Ukjf[1,7,3] + Ukjf[1,7,4] + Ukjf[1,7,5]
   + Ukjf[1,7,6] + Ukjf[1,7,7] + Ukjf[1,7,8] + Ukjf[1,7,9] + Ukjf[1,7,10]
   + Ukjf[1,9,1] + Ukjf[1,9,2] + Ukjf[1,9,3] + Ukjf[1,9,4] + Ukjf[1,9,5]
   + Ukjf[1,9,6] + Ukjf[1,9,7] + Ukjf[1,9,8] + Ukjf[1,9,9] + Ukjf[1,9,10]
   + Ukjf[1,11,1] + Ukjf[1,11,2] + Ukjf[1,11,3] + Ukjf[1,11,4]
   + Ukjf[1,11,5] + Ukjf[1,11,6] + Ukjf[1,11,7] + Ukjf[1,11,8]
   + Ukjf[1,11,9] + Ukjf[1,11,10] + Ukjf[1,13,1] + Ukjf[1,13,2]
   + Ukjf[1,13,3] + Ukjf[1,13,4] + Ukjf[1,13,5] + Ukjf[1,13,6]
   + Ukjf[1,13,7] + Ukjf[1,13,8] + Ukjf[1,13,9] + Ukjf[1,13,10] <= 1
 R60: Ukjf[2,1,1] + Ukjf[2,1,2] + Ukjf[2,1,3] + Ukjf[2,1,4] + Ukjf[2,1,5]
   + Ukjf[2,1,6] + Ukjf[2,1,7] + Ukjf[2,1,8] + Ukjf[2,1,9] + Ukjf[2,1,10]
   + Ukjf[2,3,1] + Ukjf[2,3,2] + Ukjf[2,3,3] + Ukjf[2,3,4] + Ukjf[2,3,5]
   + Ukjf[2,3,6] + Ukjf[2,3,7] + Ukjf[2,3,8] + Ukjf[2,3,9] + Ukjf[2,3,10]
   + Ukjf[2,5,1] + Ukjf[2,5,2] + Ukjf[2,5,3] + Ukjf[2,5,4] + Ukjf[2,5,5]
   + Ukjf[2,5,6] + Ukjf[2,5,7] + Ukjf[2,5,8] + Ukjf[2,5,9] + Ukjf[2,5,10]
   + Ukjf[2,7,1] + Ukjf[2,7,2] + Ukjf[2,7,3] + Ukjf[2,7,4] + Ukjf[2,7,5]
   + Ukjf[2,7,6] + Ukjf[2,7,7] + Ukjf[2,7,8] + Ukjf[2,7,9] + Ukjf[2,7,10]
   + Ukjf[2,9,1] + Ukjf[2,9,2] + Ukjf[2,9,3] + Ukjf[2,9,4] + Ukjf[2,9,5]
   + Ukjf[2,9,6] + Ukjf[2,9,7] + Ukjf[2,9,8] + Ukjf[2,9,9] + Ukjf[2,9,10]
   + Ukjf[2,11,1] + Ukjf[2,11,2] + Ukjf[2,11,3] + Ukjf[2,11,4]
   + Ukjf[2,11,5] + Ukjf[2,11,6] + Ukjf[2,11,7] + Ukjf[2,11,8]
   + Ukjf[2,11,9] + Ukjf[2,11,10] + Ukjf[2,13,1] + Ukjf[2,13,2]
   + Ukjf[2,13,3] + Ukjf[2,13,4] + Ukjf[2,13,5] + Ukjf[2,13,6]
   + Ukjf[2,13,7] + Ukjf[2,13,8] + Ukjf[2,13,9] + Ukjf[2,13,10] <= 1
 R61: Ukjf[3,1,1] + Ukjf[3,1,2] + Ukjf[3,1,3] + Ukjf[3,1,4] + Ukjf[3,1,5]
   + Ukjf[3,1,6] + Ukjf[3,1,7] + Ukjf[3,1,8] + Ukjf[3,1,9] + Ukjf[3,1,10]
   + Ukjf[3,3,1] + Ukjf[3,3,2] + Ukjf[3,3,3] + Ukjf[3,3,4] + Ukjf[3,3,5]
   + Ukjf[3,3,6] + Ukjf[3,3,7] + Ukjf[3,3,8] + Ukjf[3,3,9] + Ukjf[3,3,10]
   + Ukjf[3,5,1] + Ukjf[3,5,2] + Ukjf[3,5,3] + Ukjf[3,5,4] + Ukjf[3,5,5]
   + Ukjf[3,5,6] + Ukjf[3,5,7] + Ukjf[3,5,8] + Ukjf[3,5,9] + Ukjf[3,5,10]
   + Ukjf[3,7,1] + Ukjf[3,7,2] + Ukjf[3,7,3] + Ukjf[3,7,4] + Ukjf[3,7,5]
   + Ukjf[3,7,6] + Ukjf[3,7,7] + Ukjf[3,7,8] + Ukjf[3,7,9] + Ukjf[3,7,10]
   + Ukjf[3,9,1] + Ukjf[3,9,2] + Ukjf[3,9,3] + Ukjf[3,9,4] + Ukjf[3,9,5]
   + Ukjf[3,9,6] + Ukjf[3,9,7] + Ukjf[3,9,8] + Ukjf[3,9,9] + Ukjf[3,9,10]
   + Ukjf[3,11,1] + Ukjf[3,11,2] + Ukjf[3,11,3] + Ukjf[3,11,4]
   + Ukjf[3,11,5] + Ukjf[3,11,6] + Ukjf[3,11,7] + Ukjf[3,11,8]
   + Ukjf[3,11,9] + Ukjf[3,11,10] + Ukjf[3,13,1] + Ukjf[3,13,2]
   + Ukjf[3,13,3] + Ukjf[3,13,4] + Ukjf[3,13,5] + Ukjf[3,13,6]
   + Ukjf[3,13,7] + Ukjf[3,13,8] + Ukjf[3,13,9] + Ukjf[3,13,10] <= 1
 R62: Ukjf[1,2,1] + Ukjf[1,2,2] + Ukjf[1,2,3] + Ukjf[1,2,4] + Ukjf[1,2,5]
   + Ukjf[1,2,6] + Ukjf[1,2,7] + Ukjf[1,2,8] + Ukjf[1,2,9] + Ukjf[1,2,10]
   + Ukjf[1,4,1] + Ukjf[1,4,2] + Ukjf[1,4,3] + Ukjf[1,4,4] + Ukjf[1,4,5]
   + Ukjf[1,4,6] + Ukjf[1,4,7] + Ukjf[1,4,8] + Ukjf[1,4,9] + Ukjf[1,4,10]
   + Ukjf[1,6,1] + Ukjf[1,6,2] + Ukjf[1,6,3] + Ukjf[1,6,4] + Ukjf[1,6,5]
   + Ukjf[1,6,6] + Ukjf[1,6,7] + Ukjf[1,6,8] + Ukjf[1,6,9] + Ukjf[1,6,10]
   + Ukjf[1,8,1] + Ukjf[1,8,2] + Ukjf[1,8,3] + Ukjf[1,8,4] + Ukjf[1,8,5]
   + Ukjf[1,8,6] + Ukjf[1,8,7] + Ukjf[1,8,8] + Ukjf[1,8,9] + Ukjf[1,8,10]
   + Ukjf[1,10,1] + Ukjf[1,10,2] + Ukjf[1,10,3] + Ukjf[1,10,4]
   + Ukjf[1,10,5] + Ukjf[1,10,6] + Ukjf[1,10,7] + Ukjf[1,10,8]
   + Ukjf[1,10,9] + Ukjf[1,10,10] + Ukjf[1,12,1] + Ukjf[1,12,2]
   + Ukjf[1,12,3] + Ukjf[1,12,4] + Ukjf[1,12,5] + Ukjf[1,12,6]
   + Ukjf[1,12,7] + Ukjf[1,12,8] + Ukjf[1,12,9] + Ukjf[1,12,10]
   + Ukjf[1,14,1] + Ukjf[1,14,2] + Ukjf[1,14,3] + Ukjf[1,14,4]
   + Ukjf[1,14,5] + Ukjf[1,14,6] + Ukjf[1,14,7] + Ukjf[1,14,8]
   + Ukjf[1,14,9] + Ukjf[1,14,10] <= 2
 R63: Ukjf[2,2,1] + Ukjf[2,2,2] + Ukjf[2,2,3] + Ukjf[2,2,4] + Ukjf[2,2,5]
   + Ukjf[2,2,6] + Ukjf[2,2,7] + Ukjf[2,2,8] + Ukjf[2,2,9] + Ukjf[2,2,10]
   + Ukjf[2,4,1] + Ukjf[2,4,2] + Ukjf[2,4,3] + Ukjf[2,4,4] + Ukjf[2,4,5]
   + Ukjf[2,4,6] + Ukjf[2,4,7] + Ukjf[2,4,8] + Ukjf[2,4,9] + Ukjf[2,4,10]
   + Ukjf[2,6,1] + Ukjf[2,6,2] + Ukjf[2,6,3] + Ukjf[2,6,4] + Ukjf[2,6,5]
   + Ukjf[2,6,6] + Ukjf[2,6,7] + Ukjf[2,6,8] + Ukjf[2,6,9] + Ukjf[2,6,10]
   + Ukjf[2,8,1] + Ukjf[2,8,2] + Ukjf[2,8,3] + Ukjf[2,8,4] + Ukjf[2,8,5]
   + Ukjf[2,8,6] + Ukjf[2,8,7] + Ukjf[2,8,8] + Ukjf[2,8,9] + Ukjf[2,8,10]
   + Ukjf[2,10,1] + Ukjf[2,10,2] + Ukjf[2,10,3] + Ukjf[2,10,4]
   + Ukjf[2,10,5] + Ukjf[2,10,6] + Ukjf[2,10,7] + Ukjf[2,10,8]
   + Ukjf[2,10,9] + Ukjf[2,10,10] + Ukjf[2,12,1] + Ukjf[2,12,2]
   + Ukjf[2,12,3] + Ukjf[2,12,4] + Ukjf[2,12,5] + Ukjf[2,12,6]
   + Ukjf[2,12,7] + Ukjf[2,12,8] + Ukjf[2,12,9] + Ukjf[2,12,10]
   + Ukjf[2,14,1] + Ukjf[2,14,2] + Ukjf[2,14,3] + Ukjf[2,14,4]
   + Ukjf[2,14,5] + Ukjf[2,14,6] + Ukjf[2,14,7] + Ukjf[2,14,8]
   + Ukjf[2,14,9] + Ukjf[2,14,10] <= 2
 R64: Ukjf[3,2,1] + Ukjf[3,2,2] + Ukjf[3,2,3] + Ukjf[3,2,4] + Ukjf[3,2,5]
   + Ukjf[3,2,6] + Ukjf[3,2,7] + Ukjf[3,2,8] + Ukjf[3,2,9] + Ukjf[3,2,10]
   + Ukjf[3,4,1] + Ukjf[3,4,2] + Ukjf[3,4,3] + Ukjf[3,4,4] + Ukjf[3,4,5]
   + Ukjf[3,4,6] + Ukjf[3,4,7] + Ukjf[3,4,8] + Ukjf[3,4,9] + Ukjf[3,4,10]
   + Ukjf[3,6,1] + Ukjf[3,6,2] + Ukjf[3,6,3] + Ukjf[3,6,4] + Ukjf[3,6,5]
   + Ukjf[3,6,6] + Ukjf[3,6,7] + Ukjf[3,6,8] + Ukjf[3,6,9] + Ukjf[3,6,10]
   + Ukjf[3,8,1] + Ukjf[3,8,2] + Ukjf[3,8,3] + Ukjf[3,8,4] + Ukjf[3,8,5]
   + Ukjf[3,8,6] + Ukjf[3,8,7] + Ukjf[3,8,8] + Ukjf[3,8,9] + Ukjf[3,8,10]
   + Ukjf[3,10,1] + Ukjf[3,10,2] + Ukjf[3,10,3] + Ukjf[3,10,4]
   + Ukjf[3,10,5] + Ukjf[3,10,6] + Ukjf[3,10,7] + Ukjf[3,10,8]
   + Ukjf[3,10,9] + Ukjf[3,10,10] + Ukjf[3,12,1] + Ukjf[3,12,2]
   + Ukjf[3,12,3] + Ukjf[3,12,4] + Ukjf[3,12,5] + Ukjf[3,12,6]
   + Ukjf[3,12,7] + Ukjf[3,12,8] + Ukjf[3,12,9] + Ukjf[3,12,10]
   + Ukjf[3,14,1] + Ukjf[3,14,2] + Ukjf[3,14,3] + Ukjf[3,14,4]
   + Ukjf[3,14,5] + Ukjf[3,14,6] + Ukjf[3,14,7] + Ukjf[3,14,8]
   + Ukjf[3,14,9] + Ukjf[3,14,10] <= 2
 R65: Ukjf[1,1,1] + Ukjf[2,1,1] + Ukjf[3,1,1] <= 1
 R66: Ukjf[1,1,2] + Ukjf[2,1,2] + Ukjf[3,1,2] <= 1
 R67: Ukjf[1,1,3] + Ukjf[2,1,3] + Ukjf[3,1,3] <= 1
 R68: Ukjf[1,1,4] + Ukjf[2,1,4] + Ukjf[3,1,4] <= 1
 R69: Ukjf[1,1,5] + Ukjf[2,1,5] + Ukjf[3,1,5] <= 1
 R70: Ukjf[1,1,6] + Ukjf[2,1,6] + Ukjf[3,1,6] <= 1
 R71: Ukjf[1,1,7] + Ukjf[2,1,7] + Ukjf[3,1,7] <= 1
 R72: Ukjf[1,1,8] + Ukjf[2,1,8] + Ukjf[3,1,8] <= 1
 R73: Ukjf[1,1,9] + Ukjf[2,1,9] + Ukjf[3,1,9] <= 1
 R74: Ukjf[1,1,10] + Ukjf[2,1,10] + Ukjf[3,1,10] <= 1
 R75: Ukjf[1,2,1] + Ukjf[2,2,1] + Ukjf[3,2,1] <= 1
 R76: Ukjf[1,2,2] + Ukjf[2,2,2] + Ukjf[3,2,2] <= 1
 R77: Ukjf[1,2,3] + Ukjf[2,2,3] + Ukjf[3,2,3] <= 1
 R78: Ukjf[1,2,4] + Ukjf[2,2,4] + Ukjf[3,2,4] <= 1
 R79: Ukjf[1,2,5] + Ukjf[2,2,5] + Ukjf[3,2,5] <= 1
 R80: Ukjf[1,2,6] + Ukjf[2,2,6] + Ukjf[3,2,6] <= 1
 R81: Ukjf[1,2,7] + Ukjf[2,2,7] + Ukjf[3,2,7] <= 1
 R82: Ukjf[1,2,8] + Ukjf[2,2,8] + Ukjf[3,2,8] <= 1
 R83: Ukjf[1,2,9] + Ukjf[2,2,9] + Ukjf[3,2,9] <= 1
 R84: Ukjf[1,2,10] + Ukjf[2,2,10] + Ukjf[3,2,10] <= 1
 R85: Ukjf[1,3,1] + Ukjf[2,3,1] + Ukjf[3,3,1] <= 1
 R86: Ukjf[1,3,2] + Ukjf[2,3,2] + Ukjf[3,3,2] <= 1
 R87: Ukjf[1,3,3] + Ukjf[2,3,3] + Ukjf[3,3,3] <= 1
 R88: Ukjf[1,3,4] + Ukjf[2,3,4] + Ukjf[3,3,4] <= 1
 R89: Ukjf[1,3,5] + Ukjf[2,3,5] + Ukjf[3,3,5] <= 1
 R90: Ukjf[1,3,6] + Ukjf[2,3,6] + Ukjf[3,3,6] <= 1
 R91: Ukjf[1,3,7] + Ukjf[2,3,7] + Ukjf[3,3,7] <= 1
 R92: Ukjf[1,3,8] + Ukjf[2,3,8] + Ukjf[3,3,8] <= 1
 R93: Ukjf[1,3,9] + Ukjf[2,3,9] + Ukjf[3,3,9] <= 1
 R94: Ukjf[1,3,10] + Ukjf[2,3,10] + Ukjf[3,3,10] <= 1
 R95: Ukjf[1,4,1] + Ukjf[2,4,1] + Ukjf[3,4,1] <= 1
 R96: Ukjf[1,4,2] + Ukjf[2,4,2] + Ukjf[3,4,2] <= 1
 R97: Ukjf[1,4,3] + Ukjf[2,4,3] + Ukjf[3,4,3] <= 1
 R98: Ukjf[1,4,4] + Ukjf[2,4,4] + Ukjf[3,4,4] <= 1
 R99: Ukjf[1,4,5] + Ukjf[2,4,5] + Ukjf[3,4,5] <= 1
 R100: Ukjf[1,4,6] + Ukjf[2,4,6] + Ukjf[3,4,6] <= 1
 R101: Ukjf[1,4,7] + Ukjf[2,4,7] + Ukjf[3,4,7] <= 1
 R102: Ukjf[1,4,8] + Ukjf[2,4,8] + Ukjf[3,4,8] <= 1
 R103: Ukjf[1,4,9] + Ukjf[2,4,9] + Ukjf[3,4,9] <= 1
 R104: Ukjf[1,4,10] + Ukjf[2,4,10] + Ukjf[3,4,10] <= 1
 R105: Ukjf[1,5,1] + Ukjf[2,5,1] + Ukjf[3,5,1] <= 1
 R106: Ukjf[1,5,2] + Ukjf[2,5,2] + Ukjf[3,5,2] <= 1
 R107: Ukjf[1,5,3] + Ukjf[2,5,3] + Ukjf[3,5,3] <= 1
 R108: Ukjf[1,5,4] + Ukjf[2,5,4] + Ukjf[3,5,4] <= 1
 R109: Ukjf[1,5,5] + Ukjf[2,5,5] + Ukjf[3,5,5] <= 1
 R110: Ukjf[1,5,6] + Ukjf[2,5,6] + Ukjf[3,5,6] <= 1
 R111: Ukjf[1,5,7] + Ukjf[2,5,7] + Ukjf[3,5,7] <= 1
 R112: Ukjf[1,5,8] + Ukjf[2,5,8] + Ukjf[3,5,8] <= 1
 R113: Ukjf[1,5,9] + Ukjf[2,5,9] + Ukjf[3,5,9] <= 1
 R114: Ukjf[1,5,10] + Ukjf[2,5,10] + Ukjf[3,5,10] <= 1
 R115: Ukjf[1,6,1] + Ukjf[2,6,1] + Ukjf[3,6,1] <= 1
 R116: Ukjf[1,6,2] + Ukjf[2,6,2] + Ukjf[3,6,2] <= 1
 R117: Ukjf[1,6,3] + Ukjf[2,6,3] + Ukjf[3,6,3] <= 1
 R118: Ukjf[1,6,4] + Ukjf[2,6,4] + Ukjf[3,6,4] <= 1
 R119: Ukjf[1,6,5] + Ukjf[2,6,5] + Ukjf[3,6,5] <= 1
 R120: Ukjf[1,6,6] + Ukjf[2,6,6] + Ukjf[3,6,6] <= 1
 R121: Ukjf[1,6,7] + Ukjf[2,6,7] + Ukjf[3,6,7] <= 1
 R122: Ukjf[1,6,8] + Ukjf[2,6,8] + Ukjf[3,6,8] <= 1
 R123: Ukjf[1,6,9] + Ukjf[2,6,9] + Ukjf[3,6,9] <= 1
 R124: Ukjf[1,6,10] + Ukjf[2,6,10] + Ukjf[3,6,10] <= 1
 R125: Ukjf[1,7,1] + Ukjf[2,7,1] + Ukjf[3,7,1] <= 1
 R126: Ukjf[1,7,2] + Ukjf[2,7,2] + Ukjf[3,7,2] <= 1
 R127: Ukjf[1,7,3] + Ukjf[2,7,3] + Ukjf[3,7,3] <= 1
 R128: Ukjf[1,7,4] + Ukjf[2,7,4] + Ukjf[3,7,4] <= 1
 R129: Ukjf[1,7,5] + Ukjf[2,7,5] + Ukjf[3,7,5] <= 1
 R130: Ukjf[1,7,6] + Ukjf[2,7,6] + Ukjf[3,7,6] <= 1
 R131: Ukjf[1,7,7] + Ukjf[2,7,7] + Ukjf[3,7,7] <= 1
 R132: Ukjf[1,7,8] + Ukjf[2,7,8] + Ukjf[3,7,8] <= 1
 R133: Ukjf[1,7,9] + Ukjf[2,7,9] + Ukjf[3,7,9] <= 1
 R134: Ukjf[1,7,10] + Ukjf[2,7,10] + Ukjf[3,7,10] <= 1
 R135: Ukjf[1,8,1] + Ukjf[2,8,1] + Ukjf[3,8,1] <= 1
 R136: Ukjf[1,8,2] + Ukjf[2,8,2] + Ukjf[3,8,2] <= 1
 R137: Ukjf[1,8,3] + Ukjf[2,8,3] + Ukjf[3,8,3] <= 1
 R138: Ukjf[1,8,4] + Ukjf[2,8,4] + Ukjf[3,8,4] <= 1
 R139: Ukjf[1,8,5] + Ukjf[2,8,5] + Ukjf[3,8,5] <= 1
 R140: Ukjf[1,8,6] + Ukjf[2,8,6] + Ukjf[3,8,6] <= 1
 R141: Ukjf[1,8,7] + Ukjf[2,8,7] + Ukjf[3,8,7] <= 1
 R142: Ukjf[1,8,8] + Ukjf[2,8,8] + Ukjf[3,8,8] <= 1
 R143: Ukjf[1,8,9] + Ukjf[2,8,9] + Ukjf[3,8,9] <= 1
 R144: Ukjf[1,8,10] + Ukjf[2,8,10] + Ukjf[3,8,10] <= 1
 R145: Ukjf[1,9,1] + Ukjf[2,9,1] + Ukjf[3,9,1] <= 1
 R146: Ukjf[1,9,2] + Ukjf[2,9,2] + Ukjf[3,9,2] <= 1
 R147: Ukjf[1,9,3] + Ukjf[2,9,3] + Ukjf[3,9,3] <= 1
 R148: Ukjf[1,9,4] + Ukjf[2,9,4] + Ukjf[3,9,4] <= 1
 R149: Ukjf[1,9,5] + Ukjf[2,9,5] + Ukjf[3,9,5] <= 1
 R150: Ukjf[1,9,6] + Ukjf[2,9,6] + Ukjf[3,9,6] <= 1
 R151: Ukjf[1,9,7] + Ukjf[2,9,7] + Ukjf[3,9,7] <= 1
 R152: Ukjf[1,9,8] + Ukjf[2,9,8] + Ukjf[3,9,8] <= 1
 R153: Ukjf[1,9,9] + Ukjf[2,9,9] + Ukjf[3,9,9] <= 1
 R154: Ukjf[1,9,10] + Ukjf[2,9,10] + Ukjf[3,9,10] <= 1
 R155: Ukjf[1,10,1] + Ukjf[2,10,1] + Ukjf[3,10,1] <= 1
 R156: Ukjf[1,10,2] + Ukjf[2,10,2] + Ukjf[3,10,2] <= 1
 R157: Ukjf[1,10,3] + Ukjf[2,10,3] + Ukjf[3,10,3] <= 1
 R158: Ukjf[1,10,4] + Ukjf[2,10,4] + Ukjf[3,10,4] <= 1
 R159: Ukjf[1,10,5] + Ukjf[2,10,5] + Ukjf[3,10,5] <= 1
 R160: Ukjf[1,10,6] + Ukjf[2,10,6] + Ukjf[3,10,6] <= 1
 R161: Ukjf[1,10,7] + Ukjf[2,10,7] + Ukjf[3,10,7] <= 1
 R162: Ukjf[1,10,8] + Ukjf[2,10,8] + Ukjf[3,10,8] <= 1
 R163: Ukjf[1,10,9] + Ukjf[2,10,9] + Ukjf[3,10,9] <= 1
 R164: Ukjf[1,10,10] + Ukjf[2,10,10] + Ukjf[3,10,10] <= 1
 R165: Ukjf[1,11,1] + Ukjf[2,11,1] + Ukjf[3,11,1] <= 1
 R166: Ukjf[1,11,2] + Ukjf[2,11,2] + Ukjf[3,11,2] <= 1
 R167: Ukjf[1,11,3] + Ukjf[2,11,3] + Ukjf[3,11,3] <= 1
 R168: Ukjf[1,11,4] + Ukjf[2,11,4] + Ukjf[3,11,4] <= 1
 R169: Ukjf[1,11,5] + Ukjf[2,11,5] + Ukjf[3,11,5] <= 1
 R170: Ukjf[1,11,6] + Ukjf[2,11,6] + Ukjf[3,11,6] <= 1
 R171: Ukjf[1,11,7] + Ukjf[2,11,7] + Ukjf[3,11,7] <= 1
 R172: Ukjf[1,11,8] + Ukjf[2,11,8] + Ukjf[3,11,8] <= 1
 R173: Ukjf[1,11,9] + Ukjf[2,11,9] + Ukjf[3,11,9] <= 1
 R174: Ukjf[1,11,10] + Ukjf[2,11,10] + Ukjf[3,11,10] <= 1
 R175: Ukjf[1,12,1] + Ukjf[2,12,1] + Ukjf[3,12,1] <= 1
 R176: Ukjf[1,12,2] + Ukjf[2,12,2] + Ukjf[3,12,2] <= 1
 R177: Ukjf[1,12,3] + Ukjf[2,12,3] + Ukjf[3,12,3] <= 1
 R178: Ukjf[1,12,4] + Ukjf[2,12,4] + Ukjf[3,12,4] <= 1
 R179: Ukjf[1,12,5] + Ukjf[2,12,5] + Ukjf[3,12,5] <= 1
 R180: Ukjf[1,12,6] + Ukjf[2,12,6] + Ukjf[3,12,6] <= 1
 R181: Ukjf[1,12,7] + Ukjf[2,12,7] + Ukjf[3,12,7] <= 1
 R182: Ukjf[1,12,8] + Ukjf[2,12,8] + Ukjf[3,12,8] <= 1
 R183: Ukjf[1,12,9] + Ukjf[2,12,9] + Ukjf[3,12,9] <= 1
 R184: Ukjf[1,12,10] + Ukjf[2,12,10] + Ukjf[3,12,10] <= 1
 R185: Ukjf[1,13,1] + Ukjf[2,13,1] + Ukjf[3,13,1] <= 1
 R186: Ukjf[1,13,2] + Ukjf[2,13,2] + Ukjf[3,13,2] <= 1
 R187: Ukjf[1,13,3] + Ukjf[2,13,3] + Ukjf[3,13,3] <= 1
 R188: Ukjf[1,13,4] + Ukjf[2,13,4] + Ukjf[3,13,4] <= 1
 R189: Ukjf[1,13,5] + Ukjf[2,13,5] + Ukjf[3,13,5] <= 1
 R190: Ukjf[1,13,6] + Ukjf[2,13,6] + Ukjf[3,13,6] <= 1
 R191: Ukjf[1,13,7] + Ukjf[2,13,7] + Ukjf[3,13,7] <= 1
 R192: Ukjf[1,13,8] + Ukjf[2,13,8] + Ukjf[3,13,8] <= 1
 R193: Ukjf[1,13,9] + Ukjf[2,13,9] + Ukjf[3,13,9] <= 1
 R194: Ukjf[1,13,10] + Ukjf[2,13,10] + Ukjf[3,13,10] <= 1
 R195: Ukjf[1,14,1] + Ukjf[2,14,1] + Ukjf[3,14,1] <= 1
 R196: Ukjf[1,14,2] + Ukjf[2,14,2] + Ukjf[3,14,2] <= 1
 R197: Ukjf[1,14,3] + Ukjf[2,14,3] + Ukjf[3,14,3] <= 1
 R198: Ukjf[1,14,4] + Ukjf[2,14,4] + Ukjf[3,14,4] <= 1
 R199: Ukjf[1,14,5] + Ukjf[2,14,5] + Ukjf[3,14,5] <= 1
 R200: Ukjf[1,14,6] + Ukjf[2,14,6] + Ukjf[3,14,6] <= 1
 R201: Ukjf[1,14,7] + Ukjf[2,14,7] + Ukjf[3,14,7] <= 1
 R202: Ukjf[1,14,8] + Ukjf[2,14,8] + Ukjf[3,14,8] <= 1
 R203: Ukjf[1,14,9] + Ukjf[2,14,9] + Ukjf[3,14,9] <= 1
 R204: Ukjf[1,14,10] + Ukjf[2,14,10] + Ukjf[3,14,10] <= 1
 R205: - 7.31134198546647 Qkj[1,1] >= -80
 R206: - 7.31134198546647 Qkj[1,2] >= -80
 R207: - 7.403982988590721 Qkj[1,3] >= -80
 R208: - 7.403982988590721 Qkj[1,4] >= -80
 R209: - 3.27714635128121 Qkj[1,5] >= -80
 R210: - 3.27714635128121 Qkj[1,6] >= -80
 R211: - 1.909807583157565 Qkj[1,7] >= -80
 R212: - 1.909807583157565 Qkj[1,8] >= -80
 R213: - 1.049285919193071 Qkj[1,9] >= -80
 R214: - 1.049285919193071 Qkj[1,10] >= -80
 R215: - 2.384381310856989 Qkj[1,11] >= -80
 R216: - 2.384381310856989 Qkj[1,12] >= -80
 R217: - 5.360665424769235 Qkj[1,13] >= -80
 R218: - 5.360665424769235 Qkj[1,14] >= -80
 R219: - 4.304249618424975 Qkj[2,1] >= -80
 R220: - 4.304249618424975 Qkj[2,2] >= -80
 R221: - 4.272462226158731 Qkj[2,3] >= -80
 R222: - 4.272462226158731 Qkj[2,4] >= -80
 R223: - 2.923894602675174 Qkj[2,5] >= -80
 R224: - 2.923894602675174 Qkj[2,6] >= -80
 R225: - 3.920242281927842 Qkj[2,7] >= -80
 R226: - 3.920242281927842 Qkj[2,8] >= -80
 R227: - 2.847162680002528 Qkj[2,9] >= -80
 R228: - 2.847162680002528 Qkj[2,10] >= -80
 R229: - 2.942117625390962 Qkj[2,11] >= -80
 R230: - 2.942117625390962 Qkj[2,12] >= -80
 R231: - 4.305539085957617 Qkj[2,13] >= -80
 R232: - 4.305539085957617 Qkj[2,14] >= -80
 R233: - 8.290901090639029 Qkj[3,1] >= -80
 R234: - 8.290901090639029 Qkj[3,2] >= -80
 R235: - 6.821454703446849 Qkj[3,3] >= -80
 R236: - 6.821454703446849 Qkj[3,4] >= -80
 R237: - 2.238256594791915 Qkj[3,5] >= -80
 R238: - 2.238256594791915 Qkj[3,6] >= -80
 R239: - 3.799431207413197 Qkj[3,7] >= -80
 R240: - 3.799431207413197 Qkj[3,8] >= -80
 R241: - 6.040554633979204 Qkj[3,9] >= -80
 R242: - 6.040554633979204 Qkj[3,10] >= -80
 R243: - 7.064756627911202 Qkj[3,11] >= -80
 R244: - 7.064756627911202 Qkj[3,12] >= -80
 R245: - 9.264712197546361 Qkj[3,13] >= -80
 R246: - 9.264712197546361 Qkj[3,14] >= -80
 R247: Xj[1] + Xj[2] <= 1
 R248: Xj[3] + Xj[4] <= 1
 R249: Xj[5] + Xj[6] <= 1
 R250: Xj[7] + Xj[8] <= 1
 R251: Xj[9] + Xj[10] <= 1
 R252: Xj[11] + Xj[12] <= 1
 R253: Xj[13] + Xj[14] <= 1
 R254: - 562.8004427821199 Qkj[1,1] + 600 Ukjf[1,1,1] + 660 Ukjf[1,1,2]
   + 720 Ukjf[1,1,3] + 780 Ukjf[1,1,4] + 840 Ukjf[1,1,5] + 900 Ukjf[1,1,6]
   + 960 Ukjf[1,1,7] + 1020 Ukjf[1,1,8] + 1080 Ukjf[1,1,9]
   + 1140 Ukjf[1,1,10] >= 0
 R255: - 562.8004427821199 Qkj[1,2] + 600 Ukjf[1,2,1] + 660 Ukjf[1,2,2]
   + 720 Ukjf[1,2,3] + 780 Ukjf[1,2,4] + 840 Ukjf[1,2,5] + 900 Ukjf[1,2,6]
   + 960 Ukjf[1,2,7] + 1020 Ukjf[1,2,8] + 1080 Ukjf[1,2,9]
   + 1140 Ukjf[1,2,10] >= 0
 R256: - 563.0893440392642 Qkj[1,3] + 600 Ukjf[1,3,1] + 660 Ukjf[1,3,2]
   + 720 Ukjf[1,3,3] + 780 Ukjf[1,3,4] + 840 Ukjf[1,3,5] + 900 Ukjf[1,3,6]
   + 960 Ukjf[1,3,7] + 1020 Ukjf[1,3,8] + 1080 Ukjf[1,3,9]
   + 1140 Ukjf[1,3,10] >= 0
 R257: - 563.0893440392642 Qkj[1,4] + 600 Ukjf[1,4,1] + 660 Ukjf[1,4,2]
   + 720 Ukjf[1,4,3] + 780 Ukjf[1,4,4] + 840 Ukjf[1,4,5] + 900 Ukjf[1,4,6]
   + 960 Ukjf[1,4,7] + 1020 Ukjf[1,4,8] + 1080 Ukjf[1,4,9]
   + 1140 Ukjf[1,4,10] >= 0
 R258: - 550.2197911162616 Qkj[1,5] + 600 Ukjf[1,5,1] + 660 Ukjf[1,5,2]
   + 720 Ukjf[1,5,3] + 780 Ukjf[1,5,4] + 840 Ukjf[1,5,5] + 900 Ukjf[1,5,6]
   + 960 Ukjf[1,5,7] + 1020 Ukjf[1,5,8] + 1080 Ukjf[1,5,9]
   + 1140 Ukjf[1,5,10] >= 0
 R259: - 550.2197911162616 Qkj[1,6] + 600 Ukjf[1,6,1] + 660 Ukjf[1,6,2]
   + 720 Ukjf[1,6,3] + 780 Ukjf[1,6,4] + 840 Ukjf[1,6,5] + 900 Ukjf[1,6,6]
   + 960 Ukjf[1,6,7] + 1020 Ukjf[1,6,8] + 1080 Ukjf[1,6,9]
   + 1140 Ukjf[1,6,10] >= 0
 R260: - 545.9557409038177 Qkj[1,7] + 600 Ukjf[1,7,1] + 660 Ukjf[1,7,2]
   + 720 Ukjf[1,7,3] + 780 Ukjf[1,7,4] + 840 Ukjf[1,7,5] + 900 Ukjf[1,7,6]
   + 960 Ukjf[1,7,7] + 1020 Ukjf[1,7,8] + 1080 Ukjf[1,7,9]
   + 1140 Ukjf[1,7,10] >= 0
 R261: - 545.9557409038177 Qkj[1,8] + 600 Ukjf[1,8,1] + 660 Ukjf[1,8,2]
   + 720 Ukjf[1,8,3] + 780 Ukjf[1,8,4] + 840 Ukjf[1,8,5] + 900 Ukjf[1,8,6]
   + 960 Ukjf[1,8,7] + 1020 Ukjf[1,8,8] + 1080 Ukjf[1,8,9]
   + 1140 Ukjf[1,8,10] >= 0
 R262: - 543.2722014112049 Qkj[1,9] + 600 Ukjf[1,9,1] + 660 Ukjf[1,9,2]
   + 720 Ukjf[1,9,3] + 780 Ukjf[1,9,4] + 840 Ukjf[1,9,5] + 900 Ukjf[1,9,6]
   + 960 Ukjf[1,9,7] + 1020 Ukjf[1,9,8] + 1080 Ukjf[1,9,9]
   + 1140 Ukjf[1,9,10] >= 0
 R263: - 543.2722014112049 Qkj[1,10] + 600 Ukjf[1,10,1] + 660 Ukjf[1,10,2]
   + 720 Ukjf[1,10,3] + 780 Ukjf[1,10,4] + 840 Ukjf[1,10,5]
   + 900 Ukjf[1,10,6] + 960 Ukjf[1,10,7] + 1020 Ukjf[1,10,8]
   + 1080 Ukjf[1,10,9] + 1140 Ukjf[1,10,10] >= 0
 R264: - 547.4357005536081 Qkj[1,11] + 600 Ukjf[1,11,1] + 660 Ukjf[1,11,2]
   + 720 Ukjf[1,11,3] + 780 Ukjf[1,11,4] + 840 Ukjf[1,11,5]
   + 900 Ukjf[1,11,6] + 960 Ukjf[1,11,7] + 1020 Ukjf[1,11,8]
   + 1080 Ukjf[1,11,9] + 1140 Ukjf[1,11,10] >= 0
 R265: - 547.4357005536081 Qkj[1,12] + 600 Ukjf[1,12,1] + 660 Ukjf[1,12,2]
   + 720 Ukjf[1,12,3] + 780 Ukjf[1,12,4] + 840 Ukjf[1,12,5]
   + 900 Ukjf[1,12,6] + 960 Ukjf[1,12,7] + 1020 Ukjf[1,12,8]
   + 1080 Ukjf[1,12,9] + 1140 Ukjf[1,12,10] >= 0
 R266: - 556.7172518443947 Qkj[1,13] + 600 Ukjf[1,13,1] + 660 Ukjf[1,13,2]
   + 720 Ukjf[1,13,3] + 780 Ukjf[1,13,4] + 840 Ukjf[1,13,5]
   + 900 Ukjf[1,13,6] + 960 Ukjf[1,13,7] + 1020 Ukjf[1,13,8]
   + 1080 Ukjf[1,13,9] + 1140 Ukjf[1,13,10] >= 0
 R267: - 556.7172518443947 Qkj[1,14] + 600 Ukjf[1,14,1] + 660 Ukjf[1,14,2]
   + 720 Ukjf[1,14,3] + 780 Ukjf[1,14,4] + 840 Ukjf[1,14,5]
   + 900 Ukjf[1,14,6] + 960 Ukjf[1,14,7] + 1020 Ukjf[1,14,8]
   + 1080 Ukjf[1,14,9] + 1140 Ukjf[1,14,10] >= 0
 R268: - 733.4228158578742 Qkj[2,1] + 600 Ukjf[2,1,1] + 660 Ukjf[2,1,2]
   + 720 Ukjf[2,1,3] + 780 Ukjf[2,1,4] + 840 Ukjf[2,1,5] + 900 Ukjf[2,1,6]
   + 960 Ukjf[2,1,7] + 1020 Ukjf[2,1,8] + 1080 Ukjf[2,1,9]
   + 1140 Ukjf[2,1,10] >= 0
 R269: - 733.4228158578742 Qkj[2,2] + 600 Ukjf[2,2,1] + 660 Ukjf[2,2,2]
   + 720 Ukjf[2,2,3] + 780 Ukjf[2,2,4] + 840 Ukjf[2,2,5] + 900 Ukjf[2,2,6]
   + 960 Ukjf[2,2,7] + 1020 Ukjf[2,2,8] + 1080 Ukjf[2,2,9]
   + 1140 Ukjf[2,2,10] >= 0
 R270: - 733.3236867759628 Qkj[2,3] + 600 Ukjf[2,3,1] + 660 Ukjf[2,3,2]
   + 720 Ukjf[2,3,3] + 780 Ukjf[2,3,4] + 840 Ukjf[2,3,5] + 900 Ukjf[2,3,6]
   + 960 Ukjf[2,3,7] + 1020 Ukjf[2,3,8] + 1080 Ukjf[2,3,9]
   + 1140 Ukjf[2,3,10] >= 0
 R271: - 733.3236867759628 Qkj[2,4] + 600 Ukjf[2,4,1] + 660 Ukjf[2,4,2]
   + 720 Ukjf[2,4,3] + 780 Ukjf[2,4,4] + 840 Ukjf[2,4,5] + 900 Ukjf[2,4,6]
   + 960 Ukjf[2,4,7] + 1020 Ukjf[2,4,8] + 1080 Ukjf[2,4,9]
   + 1140 Ukjf[2,4,10] >= 0
 R272: - 729.118174436617 Qkj[2,5] + 600 Ukjf[2,5,1] + 660 Ukjf[2,5,2]
   + 720 Ukjf[2,5,3] + 780 Ukjf[2,5,4] + 840 Ukjf[2,5,5] + 900 Ukjf[2,5,6]
   + 960 Ukjf[2,5,7] + 1020 Ukjf[2,5,8] + 1080 Ukjf[2,5,9]
   + 1140 Ukjf[2,5,10] >= 0
 R273: - 729.118174436617 Qkj[2,6] + 600 Ukjf[2,6,1] + 660 Ukjf[2,6,2]
   + 720 Ukjf[2,6,3] + 780 Ukjf[2,6,4] + 840 Ukjf[2,6,5] + 900 Ukjf[2,6,6]
   + 960 Ukjf[2,6,7] + 1020 Ukjf[2,6,8] + 1080 Ukjf[2,6,9]
   + 1140 Ukjf[2,6,10] >= 0
 R274: - 732.2252877814798 Qkj[2,7] + 600 Ukjf[2,7,1] + 660 Ukjf[2,7,2]
   + 720 Ukjf[2,7,3] + 780 Ukjf[2,7,4] + 840 Ukjf[2,7,5] + 900 Ukjf[2,7,6]
   + 960 Ukjf[2,7,7] + 1020 Ukjf[2,7,8] + 1080 Ukjf[2,7,9]
   + 1140 Ukjf[2,7,10] >= 0
 R275: - 732.2252877814798 Qkj[2,8] + 600 Ukjf[2,8,1] + 660 Ukjf[2,8,2]
   + 720 Ukjf[2,8,3] + 780 Ukjf[2,8,4] + 840 Ukjf[2,8,5] + 900 Ukjf[2,8,6]
   + 960 Ukjf[2,8,7] + 1020 Ukjf[2,8,8] + 1080 Ukjf[2,8,9]
   + 1140 Ukjf[2,8,10] >= 0
 R276: - 728.8788856964736 Qkj[2,9] + 600 Ukjf[2,9,1] + 660 Ukjf[2,9,2]
   + 720 Ukjf[2,9,3] + 780 Ukjf[2,9,4] + 840 Ukjf[2,9,5] + 900 Ukjf[2,9,6]
   + 960 Ukjf[2,9,7] + 1020 Ukjf[2,9,8] + 1080 Ukjf[2,9,9]
   + 1140 Ukjf[2,9,10] >= 0
 R277: - 728.8788856964736 Qkj[2,10] + 600 Ukjf[2,10,1] + 660 Ukjf[2,10,2]
   + 720 Ukjf[2,10,3] + 780 Ukjf[2,10,4] + 840 Ukjf[2,10,5]
   + 900 Ukjf[2,10,6] + 960 Ukjf[2,10,7] + 1020 Ukjf[2,10,8]
   + 1080 Ukjf[2,10,9] + 1140 Ukjf[2,10,10] >= 0
 R278: - 729.1750029897847 Qkj[2,11] + 600 Ukjf[2,11,1] + 660 Ukjf[2,11,2]
   + 720 Ukjf[2,11,3] + 780 Ukjf[2,11,4] + 840 Ukjf[2,11,5]
   + 900 Ukjf[2,11,6] + 960 Ukjf[2,11,7] + 1020 Ukjf[2,11,8]
   + 1080 Ukjf[2,11,9] + 1140 Ukjf[2,11,10] >= 0
 R279: - 729.1750029897847 Qkj[2,12] + 600 Ukjf[2,12,1] + 660 Ukjf[2,12,2]
   + 720 Ukjf[2,12,3] + 780 Ukjf[2,12,4] + 840 Ukjf[2,12,5]
   + 900 Ukjf[2,12,6] + 960 Ukjf[2,12,7] + 1020 Ukjf[2,12,8]
   + 1080 Ukjf[2,12,9] + 1140 Ukjf[2,12,10] >= 0
 R280: - 733.4268370663959 Qkj[2,13] + 600 Ukjf[2,13,1] + 660 Ukjf[2,13,2]
   + 720 Ukjf[2,13,3] + 780 Ukjf[2,13,4] + 840 Ukjf[2,13,5]
   + 900 Ukjf[2,13,6] + 960 Ukjf[2,13,7] + 1020 Ukjf[2,13,8]
   + 1080 Ukjf[2,13,9] + 1140 Ukjf[2,13,10] >= 0
 R281: - 733.4268370663959 Qkj[2,14] + 600 Ukjf[2,14,1] + 660 Ukjf[2,14,2]
   + 720 Ukjf[2,14,3] + 780 Ukjf[2,14,4] + 840 Ukjf[2,14,5]
   + 900 Ukjf[2,14,6] + 960 Ukjf[2,14,7] + 1020 Ukjf[2,14,8]
   + 1080 Ukjf[2,14,9] + 1140 Ukjf[2,14,10] >= 0
 R282: - 925.8552009063587 Qkj[3,1] + 600 Ukjf[3,1,1] + 660 Ukjf[3,1,2]
   + 720 Ukjf[3,1,3] + 780 Ukjf[3,1,4] + 840 Ukjf[3,1,5] + 900 Ukjf[3,1,6]
   + 960 Ukjf[3,1,7] + 1020 Ukjf[3,1,8] + 1080 Ukjf[3,1,9]
   + 1140 Ukjf[3,1,10] >= 0
 R283: - 925.8552009063587 Qkj[3,2] + 600 Ukjf[3,2,1] + 660 Ukjf[3,2,2]
   + 720 Ukjf[3,2,3] + 780 Ukjf[3,2,4] + 840 Ukjf[3,2,5] + 900 Ukjf[3,2,6]
   + 960 Ukjf[3,2,7] + 1020 Ukjf[3,2,8] + 1080 Ukjf[3,2,9]
   + 1140 Ukjf[3,2,10] >= 0
 R284: - 921.2727277654268 Qkj[3,3] + 600 Ukjf[3,3,1] + 660 Ukjf[3,3,2]
   + 720 Ukjf[3,3,3] + 780 Ukjf[3,3,4] + 840 Ukjf[3,3,5] + 900 Ukjf[3,3,6]
   + 960 Ukjf[3,3,7] + 1020 Ukjf[3,3,8] + 1080 Ukjf[3,3,9]
   + 1140 Ukjf[3,3,10] >= 0
 R285: - 921.2727277654268 Qkj[3,4] + 600 Ukjf[3,4,1] + 660 Ukjf[3,4,2]
   + 720 Ukjf[3,4,3] + 780 Ukjf[3,4,4] + 840 Ukjf[3,4,5] + 900 Ukjf[3,4,6]
   + 960 Ukjf[3,4,7] + 1020 Ukjf[3,4,8] + 1080 Ukjf[3,4,9]
   + 1140 Ukjf[3,4,10] >= 0
 R286: - 906.9800101708688 Qkj[3,5] + 600 Ukjf[3,5,1] + 660 Ukjf[3,5,2]
   + 720 Ukjf[3,5,3] + 780 Ukjf[3,5,4] + 840 Ukjf[3,5,5] + 900 Ukjf[3,5,6]
   + 960 Ukjf[3,5,7] + 1020 Ukjf[3,5,8] + 1080 Ukjf[3,5,9]
   + 1140 Ukjf[3,5,10] >= 0
 R287: - 906.9800101708688 Qkj[3,6] + 600 Ukjf[3,6,1] + 660 Ukjf[3,6,2]
   + 720 Ukjf[3,6,3] + 780 Ukjf[3,6,4] + 840 Ukjf[3,6,5] + 900 Ukjf[3,6,6]
   + 960 Ukjf[3,6,7] + 1020 Ukjf[3,6,8] + 1080 Ukjf[3,6,9]
   + 1140 Ukjf[3,6,10] >= 0
 R288: - 911.8485380688561 Qkj[3,7] + 600 Ukjf[3,7,1] + 660 Ukjf[3,7,2]
   + 720 Ukjf[3,7,3] + 780 Ukjf[3,7,4] + 840 Ukjf[3,7,5] + 900 Ukjf[3,7,6]
   + 960 Ukjf[3,7,7] + 1020 Ukjf[3,7,8] + 1080 Ukjf[3,7,9]
   + 1140 Ukjf[3,7,10] >= 0
 R289: - 911.8485380688561 Qkj[3,8] + 600 Ukjf[3,8,1] + 660 Ukjf[3,8,2]
   + 720 Ukjf[3,8,3] + 780 Ukjf[3,8,4] + 840 Ukjf[3,8,5] + 900 Ukjf[3,8,6]
   + 960 Ukjf[3,8,7] + 1020 Ukjf[3,8,8] + 1080 Ukjf[3,8,9]
   + 1140 Ukjf[3,8,10] >= 0
 R290: - 918.8374884635526 Qkj[3,9] + 600 Ukjf[3,9,1] + 660 Ukjf[3,9,2]
   + 720 Ukjf[3,9,3] + 780 Ukjf[3,9,4] + 840 Ukjf[3,9,5] + 900 Ukjf[3,9,6]
   + 960 Ukjf[3,9,7] + 1020 Ukjf[3,9,8] + 1080 Ukjf[3,9,9]
   + 1140 Ukjf[3,9,10] >= 0
 R291: - 918.8374884635526 Qkj[3,10] + 600 Ukjf[3,10,1] + 660 Ukjf[3,10,2]
   + 720 Ukjf[3,10,3] + 780 Ukjf[3,10,4] + 840 Ukjf[3,10,5]
   + 900 Ukjf[3,10,6] + 960 Ukjf[3,10,7] + 1020 Ukjf[3,10,8]
   + 1080 Ukjf[3,10,9] + 1140 Ukjf[3,10,10] >= 0
 R292: - 922.0314655756067 Qkj[3,11] + 600 Ukjf[3,11,1] + 660 Ukjf[3,11,2]
   + 720 Ukjf[3,11,3] + 780 Ukjf[3,11,4] + 840 Ukjf[3,11,5]
   + 900 Ukjf[3,11,6] + 960 Ukjf[3,11,7] + 1020 Ukjf[3,11,8]
   + 1080 Ukjf[3,11,9] + 1140 Ukjf[3,11,10] >= 0
 R293: - 922.0314655756067 Qkj[3,12] + 600 Ukjf[3,12,1] + 660 Ukjf[3,12,2]
   + 720 Ukjf[3,12,3] + 780 Ukjf[3,12,4] + 840 Ukjf[3,12,5]
   + 900 Ukjf[3,12,6] + 960 Ukjf[3,12,7] + 1020 Ukjf[3,12,8]
   + 1080 Ukjf[3,12,9] + 1140 Ukjf[3,12,10] >= 0
 R294: - 928.8920338800822 Qkj[3,13] + 600 Ukjf[3,13,1] + 660 Ukjf[3,13,2]
   + 720 Ukjf[3,13,3] + 780 Ukjf[3,13,4] + 840 Ukjf[3,13,5]
   + 900 Ukjf[3,13,6] + 960 Ukjf[3,13,7] + 1020 Ukjf[3,13,8]
   + 1080 Ukjf[3,13,9] + 1140 Ukjf[3,13,10] >= 0
 R295: - 928.8920338800822 Qkj[3,14] + 600 Ukjf[3,14,1] + 660 Ukjf[3,14,2]
   + 720 Ukjf[3,14,3] + 780 Ukjf[3,14,4] + 840 Ukjf[3,14,5]
   + 900 Ukjf[3,14,6] + 960 Ukjf[3,14,7] + 1020 Ukjf[3,14,8]
   + 1080 Ukjf[3,14,9] + 1140 Ukjf[3,14,10] >= 0
Bounds
Binaries
 Xj[1] Xj[2] Xj[3] Xj[4] Xj[5] Xj[6] Xj[7] Xj[8] Xj[9] Xj[10] Xj[11] Xj[12]
 Xj[13] Xj[14] Qkj[1,1] Qkj[1,2] Qkj[1,3] Qkj[1,4] Qkj[1,5] Qkj[1,6]
 Qkj[1,7] Qkj[1,8] Qkj[1,9] Qkj[1,10] Qkj[1,11] Qkj[1,12] Qkj[1,13]
 Qkj[1,14] Qkj[2,1] Qkj[2,2] Qkj[2,3] Qkj[2,4] Qkj[2,5] Qkj[2,6] Qkj[2,7]
 Qkj[2,8] Qkj[2,9] Qkj[2,10] Qkj[2,11] Qkj[2,12] Qkj[2,13] Qkj[2,14]
 Qkj[3,1] Qkj[3,2] Qkj[3,3] Qkj[3,4] Qkj[3,5] Qkj[3,6] Qkj[3,7] Qkj[3,8]
 Qkj[3,9] Qkj[3,10] Qkj[3,11] Qkj[3,12] Qkj[3,13] Qkj[3,14] Ukjf[1,1,1]
 Ukjf[1,1,2] Ukjf[1,1,3] Ukjf[1,1,4] Ukjf[1,1,5] Ukjf[1,1,6] Ukjf[1,1,7]
 Ukjf[1,1,8] Ukjf[1,1,9] Ukjf[1,1,10] Ukjf[1,2,1] Ukjf[1,2,2] Ukjf[1,2,3]
 Ukjf[1,2,4] Ukjf[1,2,5] Ukjf[1,2,6] Ukjf[1,2,7] Ukjf[1,2,8] Ukjf[1,2,9]
 Ukjf[1,2,10] Ukjf[1,3,1] Ukjf[1,3,2] Ukjf[1,3,3] Ukjf[1,3,4] Ukjf[1,3,5]
 Ukjf[1,3,6] Ukjf[1,3,7] Ukjf[1,3,8] Ukjf[1,3,9] Ukjf[1,3,10] Ukjf[1,4,1]
 Ukjf[1,4,2] Ukjf[1,4,3] Ukjf[1,4,4] Ukjf[1,4,5] Ukjf[1,4,6] Ukjf[1,4,7]
 Ukjf[1,4,8] Ukjf[1,4,9] Ukjf[1,4,10] Ukjf[1,5,1] Ukjf[1,5,2] Ukjf[1,5,3]
 Ukjf[1,5,4] Ukjf[1,5,5] Ukjf[1,5,6] Ukjf[1,5,7] Ukjf[1,5,8] Ukjf[1,5,9]
 Ukjf[1,5,10] Ukjf[1,6,1] Ukjf[1,6,2] Ukjf[1,6,3] Ukjf[1,6,4] Ukjf[1,6,5]
 Ukjf[1,6,6] Ukjf[1,6,7] Ukjf[1,6,8] Ukjf[1,6,9] Ukjf[1,6,10] Ukjf[1,7,1]
 Ukjf[1,7,2] Ukjf[1,7,3] Ukjf[1,7,4] Ukjf[1,7,5] Ukjf[1,7,6] Ukjf[1,7,7]
 Ukjf[1,7,8] Ukjf[1,7,9] Ukjf[1,7,10] Ukjf[1,8,1] Ukjf[1,8,2] Ukjf[1,8,3]
 Ukjf[1,8,4] Ukjf[1,8,5] Ukjf[1,8,6] Ukjf[1,8,7] Ukjf[1,8,8] Ukjf[1,8,9]
 Ukjf[1,8,10] Ukjf[1,9,1] Ukjf[1,9,2] Ukjf[1,9,3] Ukjf[1,9,4] Ukjf[1,9,5]
 Ukjf[1,9,6] Ukjf[1,9,7] Ukjf[1,9,8] Ukjf[1,9,9] Ukjf[1,9,10] Ukjf[1,10,1]
 Ukjf[1,10,2] Ukjf[1,10,3] Ukjf[1,10,4] Ukjf[1,10,5] Ukjf[1,10,6]
 Ukjf[1,10,7] Ukjf[1,10,8] Ukjf[1,10,9] Ukjf[1,10,10] Ukjf[1,11,1]
 Ukjf[1,11,2] Ukjf[1,11,3] Ukjf[1,11,4] Ukjf[1,11,5] Ukjf[1,11,6]
 Ukjf[1,11,7] Ukjf[1,11,8] Ukjf[1,11,9] Ukjf[1,11,10] Ukjf[1,12,1]
 Ukjf[1,12,2] Ukjf[1,12,3] Ukjf[1,12,4] Ukjf[1,12,5] Ukjf[1,12,6]
 Ukjf[1,12,7] Ukjf[1,12,8] Ukjf[1,12,9] Ukjf[1,12,10] Ukjf[1,13,1]
 Ukjf[1,13,2] Ukjf[1,13,3] Ukjf[1,13,4] Ukjf[1,13,5] Ukjf[1,13,6]
 Ukjf[1,13,7] Ukjf[1,13,8] Ukjf[1,13,9] Ukjf[1,13,10] Ukjf[1,14,1]
 Ukjf[1,14,2] Ukjf[1,14,3] Ukjf[1,14,4] Ukjf[1,14,5] Ukjf[1,14,6]
 Ukjf[1,14,7] Ukjf[1,14,8] Ukjf[1,14,9] Ukjf[1,14,10] Ukjf[2,1,1]
 Ukjf[2,1,2] Ukjf[2,1,3] Ukjf[2,1,4] Ukjf[2,1,5] Ukjf[2,1,6] Ukjf[2,1,7]
 Ukjf[2,1,8] Ukjf[2,1,9] Ukjf[2,1,10] Ukjf[2,2,1] Ukjf[2,2,2] Ukjf[2,2,3]
 Ukjf[2,2,4] Ukjf[2,2,5] Ukjf[2,2,6] Ukjf[2,2,7] Ukjf[2,2,8] Ukjf[2,2,9]
 Ukjf[2,2,10] Ukjf[2,3,1] Ukjf[2,3,2] Ukjf[2,3,3] Ukjf[2,3,4] Ukjf[2,3,5]
 Ukjf[2,3,6] Ukjf[2,3,7] Ukjf[2,3,8] Ukjf[2,3,9] Ukjf[2,3,10] Ukjf[2,4,1]
 Ukjf[2,4,2] Ukjf[2,4,3] Ukjf[2,4,4] Ukjf[2,4,5] Ukjf[2,4,6] Ukjf[2,4,7]
 Ukjf[2,4,8] Ukjf[2,4,9] Ukjf[2,4,10] Ukjf[2,5,1] Ukjf[2,5,2] Ukjf[2,5,3]
 Ukjf[2,5,4] Ukjf[2,5,5] Ukjf[2,5,6] Ukjf[2,5,7] Ukjf[2,5,8] Ukjf[2,5,9]
 Ukjf[2,5,10] Ukjf[2,6,1] Ukjf[2,6,2] Ukjf[2,6,3] Ukjf[2,6,4] Ukjf[2,6,5]
 Ukjf[2,6,6] Ukjf[2,6,7] Ukjf[2,6,8] Ukjf[2,6,9] Ukjf[2,6,10] Ukjf[2,7,1]
 Ukjf[2,7,2] Ukjf[2,7,3] Ukjf[2,7,4] Ukjf[2,7,5] Ukjf[2,7,6] Ukjf[2,7,7]
 Ukjf[2,7,8] Ukjf[2,7,9] Ukjf[2,7,10] Ukjf[2,8,1] Ukjf[2,8,2] Ukjf[2,8,3]
 Ukjf[2,8,4] Ukjf[2,8,5] Ukjf[2,8,6] Ukjf[2,8,7] Ukjf[2,8,8] Ukjf[2,8,9]
 Ukjf[2,8,10] Ukjf[2,9,1] Ukjf[2,9,2] Ukjf[2,9,3] Ukjf[2,9,4] Ukjf[2,9,5]
 Ukjf[2,9,6] Ukjf[2,9,7] Ukjf[2,9,8] Ukjf[2,9,9] Ukjf[2,9,10] Ukjf[2,10,1]
 Ukjf[2,10,2] Ukjf[2,10,3] Ukjf[2,10,4] Ukjf[2,10,5] Ukjf[2,10,6]
 Ukjf[2,10,7] Ukjf[2,10,8] Ukjf[2,10,9] Ukjf[2,10,10] Ukjf[2,11,1]
 Ukjf[2,11,2] Ukjf[2,11,3] Ukjf[2,11,4] Ukjf[2,11,5] Ukjf[2,11,6]
 Ukjf[2,11,7] Ukjf[2,11,8] Ukjf[2,11,9] Ukjf[2,11,10] Ukjf[2,12,1]
 Ukjf[2,12,2] Ukjf[2,12,3] Ukjf[2,12,4] Ukjf[2,12,5] Ukjf[2,12,6]
 Ukjf[2,12,7] Ukjf[2,12,8] Ukjf[2,12,9] Ukjf[2,12,10] Ukjf[2,13,1]
 Ukjf[2,13,2] Ukjf[2,13,3] Ukjf[2,13,4] Ukjf[2,13,5] Ukjf[2,13,6]
 Ukjf[2,13,7] Ukjf[2,13,8] Ukjf[2,13,9] Ukjf[2,13,10] Ukjf[2,14,1]
 Ukjf[2,14,2] Ukjf[2,14,3] Ukjf[2,14,4] Ukjf[2,14,5] Ukjf[2,14,6]
 Ukjf[2,14,7] Ukjf[2,14,8] Ukjf[2,14,9] Ukjf[2,14,10] Ukjf[3,1,1]
 Ukjf[3,1,2] Ukjf[3,1,3] Ukjf[3,1,4] Ukjf[3,1,5] Ukjf[3,1,6] Ukjf[3,1,7]
 Ukjf[3,1,8] Ukjf[3,1,9] Ukjf[3,1,10] Ukjf[3,2,1] Ukjf[3,2,2] Ukjf[3,2,3]
 Ukjf[3,2,4] Ukjf[3,2,5] Ukjf[3,2,6] Ukjf[3,2,7] Ukjf[3,2,8] Ukjf[3,2,9]
 Ukjf[3,2,10] Ukjf[3,3,1] Ukjf[3,3,2] Ukjf[3,3,3] Ukjf[3,3,4] Ukjf[3,3,5]
 Ukjf[3,3,6] Ukjf[3,3,7] Ukjf[3,3,8] Ukjf[3,3,9] Ukjf[3,3,10] Ukjf[3,4,1]
 Ukjf[3,4,2] Ukjf[3,4,3] Ukjf[3,4,4] Ukjf[3,4,5] Ukjf[3,4,6] Ukjf[3,4,7]
 Ukjf[3,4,8] Ukjf[3,4,9] Ukjf[3,4,10] Ukjf[3,5,1] Ukjf[3,5,2] Ukjf[3,5,3]
 Ukjf[3,5,4] Ukjf[3,5,5] Ukjf[3,5,6] Ukjf[3,5,7] Ukjf[3,5,8] Ukjf[3,5,9]
 Ukjf[3,5,10] Ukjf[3,6,1] Ukjf[3,6,2] Ukjf[3,6,3] Ukjf[3,6,4] Ukjf[3,6,5]
 Ukjf[3,6,6] Ukjf[3,6,7] Ukjf[3,6,8] Ukjf[3,6,9] Ukjf[3,6,10] Ukjf[3,7,1]
 Ukjf[3,7,2] Ukjf[3,7,3] Ukjf[3,7,4] Ukjf[3,7,5] Ukjf[3,7,6] Ukjf[3,7,7]
 Ukjf[3,7,8] Ukjf[3,7,9] Ukjf[3,7,10] Ukjf[3,8,1] Ukjf[3,8,2] Ukjf[3,8,3]
 Ukjf[3,8,4] Ukjf[3,8,5] Ukjf[3,8,6] Ukjf[3,8,7] Ukjf[3,8,8] Ukjf[3,8,9]
 Ukjf[3,8,10] Ukjf[3,9,1] Ukjf[3,9,2] Ukjf[3,9,3] Ukjf[3,9,4] Ukjf[3,9,5]
 Ukjf[3,9,6] Ukjf[3,9,7] Ukjf[3,9,8] Ukjf[3,9,9] Ukjf[3,9,10] Ukjf[3,10,1]
 Ukjf[3,10,2] Ukjf[3,10,3] Ukjf[3,10,4] Ukjf[3,10,5] Ukjf[3,10,6]
 Ukjf[3,10,7] Ukjf[3,10,8] Ukjf[3,10,9] Ukjf[3,10,10] Ukjf[3,11,1]
 Ukjf[3,11,2] Ukjf[3,11,3] Ukjf[3,11,4] Ukjf[3,11,5] Ukjf[3,11,6]
 Ukjf[3,11,7] Ukjf[3,11,8] Ukjf[3,11,9] Ukjf[3,11,10] Ukjf[3,12,1]
 Ukjf[3,12,2] Ukjf[3,12,3] Ukjf[3,12,4] Ukjf[3,12,5] Ukjf[3,12,6]
 Ukjf[3,12,7] Ukjf[3,12,8] Ukjf[3,12,9] Ukjf[3,12,10] Ukjf[3,13,1]
 Ukjf[3,13,2] Ukjf[3,13,3] Ukjf[3,13,4] Ukjf[3,13,5] Ukjf[3,13,6]
 Ukjf[3,13,7] Ukjf[3,13,8] Ukjf[3,13,9] Ukjf[3,13,10] Ukjf[3,14,1]
 Ukjf[3,14,2] Ukjf[3,14,3] Ukjf[3,14,4] Ukjf[3,14,5] Ukjf[3,14,6]
 Ukjf[3,14,7] Ukjf[3,14,8] Ukjf[3,14,9] Ukjf[3,14,10]
End
